************************************************************************
file with basedata            : n/a
initial value random generator: n/a
************************************************************************
projects                      :  1
jobs (incl. supersource/sink ):  122
horizon                       :  691
RESOURCES
  - renewable                 :  4   R
  - nonrenewable              :  0   N
  - doubly constrained        :  0   D
************************************************************************
PROJECT INFORMATION:
pronr.  #jobs rel.date duedate tardcost  MPM-Time
    1    120      0      115       83      115
************************************************************************
PRECEDENCE RELATIONS:
jobnr.    #modes  #successors   successors
   1        1          3           2   3   4
   2        1          3           5  10  16
   3        1          3           9  11  87
   4        1          3           6   8  19
   5        1          3           7  51  53
   6        1          3          12  14  18
   7        1          3          19  41  92
   8        1          3          40  60 105
   9        1          3          34  93 102
  10        1          2          76  81
  11        1          3          13  47  96
  12        1          2          21  71
  13        1          3          15  61 107
  14        1          3          17  26  91
  15        1          3          22  37  72
  16        1          3          24  27  44
  17        1          3          20  43  68
  18        1          3          36  50  59
  19        1          3          23  30  79
  20        1          3          25  28  35
  21        1          3          44  62  84
  22        1          3          39  64  99
  23        1          3          27  46  85
  24        1          3          32  45  81
  25        1          3          29  48  65
  26        1          3          31  75 119
  27        1          3          36  86 102
  28        1          3          57  70  89
  29        1          3          69  80  94
  30        1          3          38  86 108
  31        1          3          32  33  42
  32        1          3          53  78 100
  33        1          3          34  52  56
  34        1          3          38  41  49
  35        1          3          48  55  71
  36        1          3          61  63 113
  37        1          3          39  67  94
  38        1          1          55
  39        1          3          46  55  56
  40        1          3          59  77  87
  41        1          1          44
  42        1          3          58  66  78
  43        1          3          54  70  77
  44        1          3          54  68  69
  45        1          3          51  69 104
  46        1          3          49  71  95
  47        1          1         106
  48        1          2          59  61
  49        1          2          50  54
  50        1          3          74  97 103
  51        1          3          64  84  98
  52        1          2          58  83
  53        1          2          56  73
  54        1          3          74  89 109
  55        1          2          58  73
  56        1          1         116
  57        1          3          60  73  77
  58        1          3          85  88  89
  59        1          1          90
  60        1          2          76  95
  61        1          1         104
  62        1          3          72  82  86
  63        1          3          64  68 101
  64        1          2         118 121
  65        1          2          75  92
  66        1          3          76  80  87
  67        1          1         118
  68        1          2          78  97
  69        1          2         105 120
  70        1          3          83  90  99
  71        1          2          74  98
  72        1          2          88  93
  73        1          2          82 101
  74        1          2          80 116
  75        1          2          82 105
  76        1          1          99
  77        1          2          81  98
  78        1          2         103 111
  79        1          2          91  96
  80        1          1         114
  81        1          3          83  85  90
  82        1          2         110 115
  83        1          2          84 111
  84        1          1          88
  85        1          1          95
  86        1          3          91  93 115
  87        1          1         100
  88        1          1         120
  89        1          1         111
  90        1          2          92 107
  91        1          2          94  97
  92        1          2          96 106
  93        1          2         112 113
  94        1          1         101
  95        1          1         117
  96        1          1         102
  97        1          1         100
  98        1          1         113
  99        1          1         114
 100        1          1         104
 101        1          1         103
 102        1          2         108 119
 103        1          2         106 109
 104        1          1         114
 105        1          1         107
 106        1          2         112 120
 107        1          2         108 109
 108        1          1         110
 109        1          1         110
 110        1          1         112
 111        1          1         115
 112        1          1         117
 113        1          1         118
 114        1          1         117
 115        1          1         116
 116        1          1         121
 117        1          1         121
 118        1          1         119
 119        1          1         122
 120        1          1         122
 121        1          1         122
 122        1          0        
************************************************************************
REQUESTS/DURATIONS:
jobnr. mode duration  R 1  R 2  R 3  R 4
------------------------------------------------------------------------
  1      1     0    
  2      1     1       3
                       8
                       7
                       1
  3      1    10       6   6   6   6   6   6   6   6   6   6
                       7   7   7   7   7   7   7   7   7   7
                       4   4   4   4   4   4   4   4   4   4
                      10  10  10  10  10  10  10  10  10  10
  4      1     5       9   9   9   9   0
                       8   8   8   8   0
                       3   3   3   3   0
                       3   3   3   3   0
  5      1     9       2   2   2   0   2   2   2   2   2
                       6   6   6   0   6   6   6   6   6
                       4   4   4   0   4   4   4   4   4
                      10  10  10   0  10  10  10  10  10
  6      1     9       0   9   9   9   9   9   9   9   9
                       0   7   7   7   7   7   7   7   7
                       0   3   3   3   3   3   3   3   3
                       0  10  10  10  10  10  10  10  10
  7      1     3       6   6   6
                       5   5   5
                       7   7   7
                       2   2   2
  8      1     2      10  10
                       5   5
                      10  10
                       8   8
  9      1     2       6   6
                       5   5
                       1   1
                       1   1
 10      1     8       1   0   1   1   1   1   1   1
                       3   0   3   3   3   3   3   3
                       8   0   8   8   8   8   8   8
                       2   0   2   2   2   2   2   2
 11      1     6       7   7   7   7   7   7
                      10  10  10  10  10  10
                       5   5   5   5   5   5
                       7   7   7   7   7   7
 12      1    10       0   8   8   0   8   8   8   8   8   8
                       0   3   3   0   3   3   3   3   3   3
                       0  10  10   0  10  10  10  10  10  10
                       0   1   1   0   1   1   1   1   1   1
 13      1     6      10  10  10  10  10  10
                       4   4   4   4   4   4
                       7   7   7   7   7   7
                       9   9   9   9   9   9
 14      1     3       3   3   3
                      10  10  10
                       2   2   2
                       4   4   4
 15      1     3      10   0  10
                       3   0   3
                       3   0   3
                       3   0   3
 16      1    10       7   7   7   7   7   7   7   7   7   7
                       4   4   4   4   4   4   4   4   4   4
                       3   3   3   3   3   3   3   3   3   3
                       2   2   2   2   2   2   2   2   2   2
 17      1     5       6   6   6   0   6
                      10  10  10   0  10
                      10  10  10   0  10
                       2   2   2   0   2
 18      1     3       5   5   0
                       1   1   0
                       5   5   0
                       7   7   0
 19      1     3       8   8   8
                       7   7   7
                       7   7   7
                       9   9   9
 20      1    10       2   2   2   0   2   2   2   2   0   0
                       9   9   9   0   9   9   9   9   0   0
                       5   5   5   0   5   5   5   5   0   0
                       7   7   7   0   7   7   7   7   0   0
 21      1     9       9   9   0   9   9   9   9   9   9
                       7   7   0   7   7   7   7   7   7
                       5   5   0   5   5   5   5   5   5
                       1   1   0   1   1   1   1   1   1
 22      1     6       5   5   5   5   5   5
                       9   9   9   9   9   9
                       2   2   2   2   2   2
                       4   4   4   4   4   4
 23      1    10       0   7   7   7   7   7   7   7   7   7
                       0  10  10  10  10  10  10  10  10  10
                       0   3   3   3   3   3   3   3   3   3
                       0   2   2   2   2   2   2   2   2   2
 24      1     2       9   9
                       4   4
                       9   9
                       8   8
 25      1     8       0   8   8   0   8   8   8   8
                       0   4   4   0   4   4   4   4
                       0   4   4   0   4   4   4   4
                       0  10  10   0  10  10  10  10
 26      1     8      10  10  10  10  10  10  10  10
                      10  10  10  10  10  10  10  10
                       1   1   1   1   1   1   1   1
                       7   7   7   7   7   7   7   7
 27      1     1       5
                       1
                       8
                       4
 28      1     6       3   3   0   3   0   3
                       6   6   0   6   0   6
                       5   5   0   5   0   5
                       6   6   0   6   0   6
 29      1     8       1   1   0   1   1   1   1   0
                       4   4   0   4   4   4   4   0
                       9   9   0   9   9   9   9   0
                       9   9   0   9   9   9   9   0
 30      1     3       5   5   5
                       4   4   4
                       7   7   7
                       3   3   3
 31      1     9       2   2   2   2   2   2   2   2   2
                       6   6   6   6   6   6   6   6   6
                       8   8   8   8   8   8   8   8   8
                       3   3   3   3   3   3   3   3   3
 32      1     5       7   7   7   7   7
                       9   9   9   9   9
                       1   1   1   1   1
                       5   5   5   5   5
 33      1     6       7   7   7   7   7   7
                       8   8   8   8   8   8
                       4   4   4   4   4   4
                       5   5   5   5   5   5
 34      1     7       8   8   8   8   8   8   8
                       9   9   9   9   9   9   9
                       2   2   2   2   2   2   2
                      10  10  10  10  10  10  10
 35      1     4       2   2   0   2
                       8   8   0   8
                       5   5   0   5
                       6   6   0   6
 36      1     7       8   8   8   8   8   8   8
                       7   7   7   7   7   7   7
                       5   5   5   5   5   5   5
                       3   3   3   3   3   3   3
 37      1     8       3   3   3   3   3   3   0   3
                       9   9   9   9   9   9   0   9
                       1   1   1   1   1   1   0   1
                       3   3   3   3   3   3   0   3
 38      1     5       9   9   9   9   9
                       6   6   6   6   6
                      10  10  10  10  10
                       9   9   9   9   9
 39      1     7       5   5   5   5   5   0   5
                       7   7   7   7   7   0   7
                       7   7   7   7   7   0   7
                       2   2   2   2   2   0   2
 40      1     6       5   0   5   5   5   5
                       2   0   2   2   2   2
                       9   0   9   9   9   9
                       8   0   8   8   8   8
 41      1     3       6   6   6
                       2   2   2
                       6   6   6
                      10  10  10
 42      1     9       3   3   3   3   3   3   3   3   3
                      10  10  10  10  10  10  10  10  10
                      10  10  10  10  10  10  10  10  10
                       7   7   7   7   7   7   7   7   7
 43      1     5       4   4   4   4   0
                       9   9   9   9   0
                      10  10  10  10   0
                       6   6   6   6   0
 44      1     8       1   1   1   1   1   1   1   1
                       8   8   8   8   8   8   8   8
                      10  10  10  10  10  10  10  10
                       6   6   6   6   6   6   6   6
 45      1     6       9   9   0   9   9   9
                      10  10   0  10  10  10
                       8   8   0   8   8   8
                       2   2   0   2   2   2
 46      1     4       2   2   2   2
                       1   1   1   1
                       6   6   6   6
                       8   8   8   8
 47      1     1       9
                       5
                       5
                       1
 48      1     5       9   9   9   9   9
                       8   8   8   8   8
                       6   6   6   6   6
                       9   9   9   9   9
 49      1     7       8   8   8   8   8   8   0
                       9   9   9   9   9   9   0
                      10  10  10  10  10  10   0
                       6   6   6   6   6   6   0
 50      1     5       8   8   8   8   8
                       7   7   7   7   7
                       1   1   1   1   1
                       4   4   4   4   4
 51      1     9       2   2   2   2   0   2   2   2   2
                       5   5   5   5   0   5   5   5   5
                      10  10  10  10   0  10  10  10  10
                       1   1   1   1   0   1   1   1   1
 52      1    10       0  10  10  10  10  10  10  10  10  10
                       0   8   8   8   8   8   8   8   8   8
                       0   4   4   4   4   4   4   4   4   4
                       0   5   5   5   5   5   5   5   5   5
 53      1     8       2   2   0   2   2   2   2   2
                       1   1   0   1   1   1   1   1
                       6   6   0   6   6   6   6   6
                       6   6   0   6   6   6   6   6
 54      1     4       0   4   4   4
                       0   2   2   2
                       0   8   8   8
                       0   2   2   2
 55      1     7      10  10  10  10  10  10  10
                       2   2   2   2   2   2   2
                       3   3   3   3   3   3   3
                       1   1   1   1   1   1   1
 56      1     6       0   2   2   2   2   2
                       0   5   5   5   5   5
                       0   3   3   3   3   3
                       0   5   5   5   5   5
 57      1     8       5   5   5   0   5   5   5   5
                       6   6   6   0   6   6   6   6
                       2   2   2   0   2   2   2   2
                       4   4   4   0   4   4   4   4
 58      1     7       4   4   4   4   4   4   4
                       2   2   2   2   2   2   2
                       7   7   7   7   7   7   7
                       9   9   9   9   9   9   9
 59      1     4       7   7   7   7
                       6   6   6   6
                       4   4   4   4
                       1   1   1   1
 60      1     6       4   0   0   4   4   4
                       3   0   0   3   3   3
                       2   0   0   2   2   2
                       8   0   0   8   8   8
 61      1     9       9   9   0   9   9   9   9   9   0
                       7   7   0   7   7   7   7   7   0
                       7   7   0   7   7   7   7   7   0
                       5   5   0   5   5   5   5   5   0
 62      1     9       0   2   2   0   0   2   2   2   2
                       0   4   4   0   0   4   4   4   4
                       0   4   4   0   0   4   4   4   4
                       0   6   6   0   0   6   6   6   6
 63      1     3       7   7   7
                       7   7   7
                       6   6   6
                       6   6   6
 64      1     9       5   0   5   5   5   5   5   5   5
                       8   0   8   8   8   8   8   8   8
                       8   0   8   8   8   8   8   8   8
                       3   0   3   3   3   3   3   3   3
 65      1     7       5   5   5   5   5   5   5
                       4   4   4   4   4   4   4
                       6   6   6   6   6   6   6
                       8   8   8   8   8   8   8
 66      1     9       7   7   0   7   7   7   7   7   7
                       4   4   0   4   4   4   4   4   4
                       1   1   0   1   1   1   1   1   1
                       1   1   0   1   1   1   1   1   1
 67      1     1       8
                      10
                       4
                       8
 68      1    10       9   9   9   9   0   9   9   9   9   0
                      10  10  10  10   0  10  10  10  10   0
                      10  10  10  10   0  10  10  10  10   0
                       8   8   8   8   0   8   8   8   8   0
 69      1     7       0   0   2   2   2   2   0
                       0   0   6   6   6   6   0
                       0   0   8   8   8   8   0
                       0   0   5   5   5   5   0
 70      1     6       6   6   6   6   6   6
                      10  10  10  10  10  10
                       7   7   7   7   7   7
                       9   9   9   9   9   9
 71      1     9       6   6   6   6   6   6   6   6   6
                      10  10  10  10  10  10  10  10  10
                       5   5   5   5   5   5   5   5   5
                       2   2   2   2   2   2   2   2   2
 72      1     1       1
                      10
                       5
                      10
 73      1     8       7   7   7   7   7   7   7   7
                       1   1   1   1   1   1   1   1
                       8   8   8   8   8   8   8   8
                       6   6   6   6   6   6   6   6
 74      1     7       6   6   6   0   6   6   6
                       1   1   1   0   1   1   1
                       9   9   9   0   9   9   9
                       1   1   1   0   1   1   1
 75      1     4       4   4   0   4
                       3   3   0   3
                       7   7   0   7
                       6   6   0   6
 76      1     2       7   7
                       8   8
                       3   3
                       4   4
 77      1    10       7   7   7   7   0   7   7   7   7   7
                       4   4   4   4   0   4   4   4   4   4
                       5   5   5   5   0   5   5   5   5   5
                       4   4   4   4   0   4   4   4   4   4
 78      1     3       7   7   7
                       9   9   9
                       6   6   6
                       3   3   3
 79      1     9       6   6   6   6   6   6   0   6   6
                       1   1   1   1   1   1   0   1   1
                       8   8   8   8   8   8   0   8   8
                       4   4   4   4   4   4   0   4   4
 80      1     4       6   0   0   6
                       7   0   0   7
                       4   0   0   4
                       7   0   0   7
 81      1     7       7   7   7   7   7   7   7
                       8   8   8   8   8   8   8
                       9   9   9   9   9   9   9
                       2   2   2   2   2   2   2
 82      1     3       2   2   2
                       2   2   2
                       6   6   6
                       1   1   1
 83      1     8       4   4   4   4   4   4   4   4
                       1   1   1   1   1   1   1   1
                      10  10  10  10  10  10  10  10
                       4   4   4   4   4   4   4   4
 84      1    10       6   6   6   6   6   6   6   6   6   6
                      10  10  10  10  10  10  10  10  10  10
                       8   8   8   8   8   8   8   8   8   8
                       1   1   1   1   1   1   1   1   1   1
 85      1    10       1   1   1   1   1   1   1   1   1   1
                       3   3   3   3   3   3   3   3   3   3
                       8   8   8   8   8   8   8   8   8   8
                      10  10  10  10  10  10  10  10  10  10
 86      1     7       4   4   4   4   4   4   4
                       6   6   6   6   6   6   6
                       8   8   8   8   8   8   8
                       9   9   9   9   9   9   9
 87      1     5       9   9   9   9   0
                       2   2   2   2   0
                       5   5   5   5   0
                       1   1   1   1   0
 88      1     5       8   8   8   8   0
                       3   3   3   3   0
                       6   6   6   6   0
                       6   6   6   6   0
 89      1     6      10  10  10  10  10  10
                      10  10  10  10  10  10
                       6   6   6   6   6   6
                       6   6   6   6   6   6
 90      1     6       1   0   1   0   1   1
                       7   0   7   0   7   7
                       8   0   8   0   8   8
                       5   0   5   0   5   5
 91      1     3       6   6   6
                       8   8   8
                       5   5   5
                       8   8   8
 92      1     9       5   5   5   5   5   5   5   5   5
                       9   9   9   9   9   9   9   9   9
                       5   5   5   5   5   5   5   5   5
                       7   7   7   7   7   7   7   7   7
 93      1     3       8   0   8
                       2   0   2
                       1   0   1
                       8   0   8
 94      1     2       2   2
                       5   5
                       7   7
                       7   7
 95      1     6       4   4   4   4   4   4
                       8   8   8   8   8   8
                       6   6   6   6   6   6
                       3   3   3   3   3   3
 96      1     5       6   6   6   6   6
                       5   5   5   5   5
                       4   4   4   4   4
                       5   5   5   5   5
 97      1     8       0   9   9   9   9   9   9   9
                       0  10  10  10  10  10  10  10
                       0   1   1   1   1   1   1   1
                       0   2   2   2   2   2   2   2
 98      1     3       7   7   7
                       6   6   6
                       4   4   4
                       5   5   5
 99      1     2       0   4
                       0   5
                       0   6
                       0   9
100      1     5      10  10  10  10  10
                       8   8   8   8   8
                       3   3   3   3   3
                      10  10  10  10  10
101      1     3      10  10   0
                       2   2   0
                      10  10   0
                       2   2   0
102      1     6       1   1   1   1   1   1
                       7   7   7   7   7   7
                       6   6   6   6   6   6
                       5   5   5   5   5   5
103      1     2       0   4
                       0   8
                       0   9
                       0   6
104      1    10       6   6   6   6   6   6   6   6   6   0
                       1   1   1   1   1   1   1   1   1   0
                       8   8   8   8   8   8   8   8   8   0
                       2   2   2   2   2   2   2   2   2   0
105      1     1       9
                      10
                       4
                       8
106      1     5       6   6   6   6   6
                       2   2   2   2   2
                       5   5   5   5   5
                       3   3   3   3   3
107      1     4      10  10  10  10
                       7   7   7   7
                       4   4   4   4
                       2   2   2   2
108      1     1       4
                      10
                       3
                       4
109      1    10       1   1   1   1   1   1   1   1   0   1
                      10  10  10  10  10  10  10  10   0  10
                       1   1   1   1   1   1   1   1   0   1
                       7   7   7   7   7   7   7   7   0   7
110      1     4       5   5   5   5
                       7   7   7   7
                       5   5   5   5
                       5   5   5   5
111      1     4       3   0   3   3
                       9   0   9   9
                       1   0   1   1
                       3   0   3   3
112      1     4       2   2   2   2
                       4   4   4   4
                       8   8   8   8
                       7   7   7   7
113      1     5       3   3   3   3   3
                       1   1   1   1   1
                       6   6   6   6   6
                       2   2   2   2   2
114      1     1       8
                       5
                       9
                       6
115      1     1       3
                       3
                       4
                       4
116      1     5      10  10   0  10  10
                       3   3   0   3   3
                       1   1   0   1   1
                       8   8   0   8   8
117      1     8       9   9   9   9   9   9   9   9
                       9   9   9   9   9   9   9   9
                       8   8   8   8   8   8   8   8
                      10  10  10  10  10  10  10  10
118      1     3       3   3   3
                       7   7   7
                       9   9   9
                       7   7   7
119      1     5       2   2   2   2   2
                       9   9   9   9   9
                       6   6   6   6   6
                       2   2   2   2   2
120      1     5      10  10  10  10  10
                       3   3   3   3   3
                       4   4   4   4   4
                       8   8   8   8   8
121      1     9      10  10  10  10  10  10   0  10  10
                       8   8   8   8   8   8   0   8   8
                       4   4   4   4   4   4   0   4   4
                      10  10  10  10  10  10   0  10  10
122      1     0    
************************************************************************
RESOURCEAVAILABILITIES:
  R 1  R 2  R 3  R 4

  25  25   0  25  25   0  25   0  25  25  25  25  25  25  25  25  25  25  25  25  25  25  25   0  25  25  25   0  25  25  25  25   0  25  25  25  25  25  25  25  25  25  25  25  25  25  25  25  25  25   0  25  25  25  25  25  25  25  25  25  25  25  25   0  25  25  25  25  25  25  25  25  25  25  25  25  25  25  25  25  25  25  25  25  25  25  25  25  25  25   0  25  25  25  25  25  25  25  25  25  25  25  25  25  25  25  25  25  25  25  25  25  25  25   0  25  25  25   0   0  25  25  25  25  25  25  25   0   0  25  25  25  25  25  25  25   0   0  25  25  25  25  25   0  25  25  25  25  25  25  25   0  25  25  25  25  25  25  25  25  25  25   0  25  25  25  25  25  25   0  25  25  25  25  25  25   0  25  25  25  25  25  25  25  25  25  25  25  25  25  25  25  25  25  25  25  25  25  25  25  25  25  25  25  25  25  25  25  25  25  25  25  25  25  25  25  25  25  25  25  25  25  25  25  25  25  25  25  25  25  25  25  25  25  25  25  25   0   0  25  25  25  25  25   0  25  25  25  25  25  25  25  25  25  25  25  25   0  25  25  25  25  25   0  25  25  25  25  25  25  25  25  25  25  25   0  25  25  25  25  25  25  25  25   0  25  25  25   0  25  25  25  25  25  25  25  25  25   0   0  25  25  25  25  25  25  25   0  25  25  25   0   0  25  25  25  25  25  25  25  25  25  25   0  25  25  25  25   0  25  25  25  25  25  25   0  25  25  25   0  25  25  25  25  25  25  25  25  25  25  25  25  25  25   0  25   0  25  25  25  25   0  25  25  25  25  25  25  25  25  25  25  25   0  25  25  25  25  25  25  25  25  25  25  25  25  25   0  25   0  25  25  25  25  25  25  25  25  25  25  25  25  25  25  25  25  25  25  25  25  25  25  25  25  25  25  25   0  25  25  25  25  25  25  25  25  25  25  25  25   0  25  25  25  25  25  25  25  25  25  25  25   0  25  25  25  25  25  25  25  25  25  25  25  25  25   0  25  25   0  25  25  25  25  25  25  25  25  25  25  25   0  25  25  25   0  25  25  25  25  25  25  25  25  25   0  25  25  25  25  25  25  25  25  25  25  25  25  25  25  25  25  25   0  25  25   0  25  25   0  25  25  25  25  25  25  25   0  25  25  25  25  25  25  25   0  25  25  25   0  25  25   0   0  25  25  25  25  25  25  25  25  25   0  25  25  25  25  25  25  25  25  25  25  25  25  25  25  25  25  25  25  25  25  25  25  25  25  25  25   0  25  25  25  25  25  25  25  25   0  25  25  25  25  25  25  25  25  25  25   0  25  25  25   0  25   0  25  25  25  25   0  25  25  25  25  25  25  25  25  25  25  25   0  25  25  25  25  25  25  25  25  25  25   0  25  25  25  25  25  25  25  25  25  25  25  25  25  25  25  25  25  25  25  25  25  25  25  25  25  25  25  25   0  25  25  25   0  25   0  25  25  25  25  25  25  25  25  25  25  25  25   0  25  25  25  25   0  25  25  25   0  25   0  25  25  25   0  25  25  25

  25  25   0  25  25   0  25   0  25  25  25  25  25  25  25  25  25  25  25  25  25  25  25   0  25  25  25   0  25  25  25  25   0  25  25  25  25  25  25  25  25  25  25  25  25  25  25  25  25  25   0  25  25  25  25  25  25  25  25  25  25  25  25   0  25  25  25  25  25  25  25  25  25  25  25  25  25  25  25  25  25  25  25  25  25  25  25  25  25  25   0  25  25  25  25  25  25  25  25  25  25  25  25  25  25  25  25  25  25  25  25  25  25  25   0  25  25  25   0   0  25  25  25  25  25  25  25   0   0  25  25  25  25  25  25  25   0   0  25  25  25  25  25   0  25  25  25  25  25  25  25   0  25  25  25  25  25  25  25  25  25  25   0  25  25  25  25  25  25   0  25  25  25  25  25  25   0  25  25  25  25  25  25  25  25  25  25  25  25  25  25  25  25  25  25  25  25  25  25  25  25  25  25  25  25  25  25  25  25  25  25  25  25  25  25  25  25  25  25  25  25  25  25  25  25  25  25  25  25  25  25  25  25  25  25  25  25   0   0  25  25  25  25  25   0  25  25  25  25  25  25  25  25  25  25  25  25   0  25  25  25  25  25   0  25  25  25  25  25  25  25  25  25  25  25   0  25  25  25  25  25  25  25  25   0  25  25  25   0  25  25  25  25  25  25  25  25  25   0   0  25  25  25  25  25  25  25   0  25  25  25   0   0  25  25  25  25  25  25  25  25  25  25   0  25  25  25  25   0  25  25  25  25  25  25   0  25  25  25   0  25  25  25  25  25  25  25  25  25  25  25  25  25  25   0  25   0  25  25  25  25   0  25  25  25  25  25  25  25  25  25  25  25   0  25  25  25  25  25  25  25  25  25  25  25  25  25   0  25   0  25  25  25  25  25  25  25  25  25  25  25  25  25  25  25  25  25  25  25  25  25  25  25  25  25  25  25   0  25  25  25  25  25  25  25  25  25  25  25  25   0  25  25  25  25  25  25  25  25  25  25  25   0  25  25  25  25  25  25  25  25  25  25  25  25  25   0  25  25   0  25  25  25  25  25  25  25  25  25  25  25   0  25  25  25   0  25  25  25  25  25  25  25  25  25   0  25  25  25  25  25  25  25  25  25  25  25  25  25  25  25  25  25   0  25  25   0  25  25   0  25  25  25  25  25  25  25   0  25  25  25  25  25  25  25   0  25  25  25   0  25  25   0   0  25  25  25  25  25  25  25  25  25   0  25  25  25  25  25  25  25  25  25  25  25  25  25  25  25  25  25  25  25  25  25  25  25  25  25  25   0  25  25  25  25  25  25  25  25   0  25  25  25  25  25  25  25  25  25  25   0  25  25  25   0  25   0  25  25  25  25   0  25  25  25  25  25  25  25  25  25  25  25   0  25  25  25  25  25  25  25  25  25  25   0  25  25  25  25  25  25  25  25  25  25  25  25  25  25  25  25  25  25  25  25  25  25  25  25  25  25  25  25   0  25  25  25   0  25   0  25  25  25  25  25  25  25  25  25  25  25  25   0  25  25  25  25   0  25  25  25   0  25   0  25  25  25   0  25  25  25

  24  24   0  24  24   0  24   0  24  24  24  24  24  24  24  24  24  24  24  24  24  24  24   0  24  24  24   0  24  24  24  24   0  24  24  24  24  24  24  24  24  24  24  24  24  24  24  24  24  24   0  24  24  24  24  24  24  24  24  24  24  24  24   0  24  24  24  24  24  24  24  24  24  24  24  24  24  24  24  24  24  24  24  24  24  24  24  24  24  24   0  24  24  24  24  24  24  24  24  24  24  24  24  24  24  24  24  24  24  24  24  24  24  24   0  24  24  24   0   0  24  24  24  24  24  24  24   0   0  24  24  24  24  24  24  24   0   0  24  24  24  24  24   0  24  24  24  24  24  24  24   0  24  24  24  24  24  24  24  24  24  24   0  24  24  24  24  24  24   0  24  24  24  24  24  24   0  24  24  24  24  24  24  24  24  24  24  24  24  24  24  24  24  24  24  24  24  24  24  24  24  24  24  24  24  24  24  24  24  24  24  24  24  24  24  24  24  24  24  24  24  24  24  24  24  24  24  24  24  24  24  24  24  24  24  24  24   0   0  24  24  24  24  24   0  24  24  24  24  24  24  24  24  24  24  24  24   0  24  24  24  24  24   0  24  24  24  24  24  24  24  24  24  24  24   0  24  24  24  24  24  24  24  24   0  24  24  24   0  24  24  24  24  24  24  24  24  24   0   0  24  24  24  24  24  24  24   0  24  24  24   0   0  24  24  24  24  24  24  24  24  24  24   0  24  24  24  24   0  24  24  24  24  24  24   0  24  24  24   0  24  24  24  24  24  24  24  24  24  24  24  24  24  24   0  24   0  24  24  24  24   0  24  24  24  24  24  24  24  24  24  24  24   0  24  24  24  24  24  24  24  24  24  24  24  24  24   0  24   0  24  24  24  24  24  24  24  24  24  24  24  24  24  24  24  24  24  24  24  24  24  24  24  24  24  24  24   0  24  24  24  24  24  24  24  24  24  24  24  24   0  24  24  24  24  24  24  24  24  24  24  24   0  24  24  24  24  24  24  24  24  24  24  24  24  24   0  24  24   0  24  24  24  24  24  24  24  24  24  24  24   0  24  24  24   0  24  24  24  24  24  24  24  24  24   0  24  24  24  24  24  24  24  24  24  24  24  24  24  24  24  24  24   0  24  24   0  24  24   0  24  24  24  24  24  24  24   0  24  24  24  24  24  24  24   0  24  24  24   0  24  24   0   0  24  24  24  24  24  24  24  24  24   0  24  24  24  24  24  24  24  24  24  24  24  24  24  24  24  24  24  24  24  24  24  24  24  24  24  24   0  24  24  24  24  24  24  24  24   0  24  24  24  24  24  24  24  24  24  24   0  24  24  24   0  24   0  24  24  24  24   0  24  24  24  24  24  24  24  24  24  24  24   0  24  24  24  24  24  24  24  24  24  24   0  24  24  24  24  24  24  24  24  24  24  24  24  24  24  24  24  24  24  24  24  24  24  24  24  24  24  24  24   0  24  24  24   0  24   0  24  24  24  24  24  24  24  24  24  24  24  24   0  24  24  24  24   0  24  24  24   0  24   0  24  24  24   0  24  24  24

  27  27   0  27  27   0  27   0  27  27  27  27  27  27  27  27  27  27  27  27  27  27  27   0  27  27  27   0  27  27  27  27   0  27  27  27  27  27  27  27  27  27  27  27  27  27  27  27  27  27   0  27  27  27  27  27  27  27  27  27  27  27  27   0  27  27  27  27  27  27  27  27  27  27  27  27  27  27  27  27  27  27  27  27  27  27  27  27  27  27   0  27  27  27  27  27  27  27  27  27  27  27  27  27  27  27  27  27  27  27  27  27  27  27   0  27  27  27   0   0  27  27  27  27  27  27  27   0   0  27  27  27  27  27  27  27   0   0  27  27  27  27  27   0  27  27  27  27  27  27  27   0  27  27  27  27  27  27  27  27  27  27   0  27  27  27  27  27  27   0  27  27  27  27  27  27   0  27  27  27  27  27  27  27  27  27  27  27  27  27  27  27  27  27  27  27  27  27  27  27  27  27  27  27  27  27  27  27  27  27  27  27  27  27  27  27  27  27  27  27  27  27  27  27  27  27  27  27  27  27  27  27  27  27  27  27  27   0   0  27  27  27  27  27   0  27  27  27  27  27  27  27  27  27  27  27  27   0  27  27  27  27  27   0  27  27  27  27  27  27  27  27  27  27  27   0  27  27  27  27  27  27  27  27   0  27  27  27   0  27  27  27  27  27  27  27  27  27   0   0  27  27  27  27  27  27  27   0  27  27  27   0   0  27  27  27  27  27  27  27  27  27  27   0  27  27  27  27   0  27  27  27  27  27  27   0  27  27  27   0  27  27  27  27  27  27  27  27  27  27  27  27  27  27   0  27   0  27  27  27  27   0  27  27  27  27  27  27  27  27  27  27  27   0  27  27  27  27  27  27  27  27  27  27  27  27  27   0  27   0  27  27  27  27  27  27  27  27  27  27  27  27  27  27  27  27  27  27  27  27  27  27  27  27  27  27  27   0  27  27  27  27  27  27  27  27  27  27  27  27   0  27  27  27  27  27  27  27  27  27  27  27   0  27  27  27  27  27  27  27  27  27  27  27  27  27   0  27  27   0  27  27  27  27  27  27  27  27  27  27  27   0  27  27  27   0  27  27  27  27  27  27  27  27  27   0  27  27  27  27  27  27  27  27  27  27  27  27  27  27  27  27  27   0  27  27   0  27  27   0  27  27  27  27  27  27  27   0  27  27  27  27  27  27  27   0  27  27  27   0  27  27   0   0  27  27  27  27  27  27  27  27  27   0  27  27  27  27  27  27  27  27  27  27  27  27  27  27  27  27  27  27  27  27  27  27  27  27  27  27   0  27  27  27  27  27  27  27  27   0  27  27  27  27  27  27  27  27  27  27   0  27  27  27   0  27   0  27  27  27  27   0  27  27  27  27  27  27  27  27  27  27  27   0  27  27  27  27  27  27  27  27  27  27   0  27  27  27  27  27  27  27  27  27  27  27  27  27  27  27  27  27  27  27  27  27  27  27  27  27  27  27  27   0  27  27  27   0  27   0  27  27  27  27  27  27  27  27  27  27  27  27   0  27  27  27  27   0  27  27  27   0  27   0  27  27  27   0  27  27  27

************************************************************************
